0 115 115
1 121 125
2 115 131
3 133 134
4 127 132
5 127 131
6 109 129
7 126 126
8 125 128
9 111 126
10 123 125
11 89 125
12 120 125
13 113 122
14 99 122
15 107 117
16 113 113
17 96 111
18 90 108
19 107 107
20 94 104
21 102 103
22 93 102
23 91 100
24 93 99
25 56 100
26 89 100
27 97 97
28 91 96
29 79 96
30 89 96
31 64 95
32 90 93
33 89 90
34 86 87
35 79 87
36 66 85
37 50 80
38 75 80
39 52 77
40 74 77
41 55 72
42 60 68
43 66 69
44 57 66
45 50 65
46 58 63
47 41 63
48 60 62
49 48 62
50 42 60
51 41 55
52 34 53
53 33 49
54 33 46
55 32 42
56 31 39
57 25 39
58 42 42
59 25 42
60 38 42
61 31 39
62 32 39
63 21 38
64 34 36
65 34 35
66 29 31
67 26 32
68 20 30
69 26 29
70 28 28
71 28 27
72 10 20
73 11 22
74 13 18
75 14 17
76 7 15
77 10 14
78 11 12
79 12 12
80 6 12
81 11 11
82 9 11
83 9 9
84 2 3
85 4 4
86 3 4
87 1 2
88 1 1

